c created by edge2cnf
p cnf 500 3100
-1 -2 0
-1 -3 0
-1 -4 0
-1 -5 0
-2 -3 0
-2 -4 0
-2 -5 0
-3 -4 0
-3 -5 0
-4 -5 0
1 2 3 4 5 0
-6 -7 0
-6 -8 0
-6 -9 0
-6 -10 0
-7 -8 0
-7 -9 0
-7 -10 0
-8 -9 0
-8 -10 0
-9 -10 0
6 7 8 9 10 0
-11 -12 0
-11 -13 0
-11 -14 0
-11 -15 0
-12 -13 0
-12 -14 0
-12 -15 0
-13 -14 0
-13 -15 0
-14 -15 0
11 12 13 14 15 0
-16 -17 0
-16 -18 0
-16 -19 0
-16 -20 0
-17 -18 0
-17 -19 0
-17 -20 0
-18 -19 0
-18 -20 0
-19 -20 0
16 17 18 19 20 0
-21 -22 0
-21 -23 0
-21 -24 0
-21 -25 0
-22 -23 0
-22 -24 0
-22 -25 0
-23 -24 0
-23 -25 0
-24 -25 0
21 22 23 24 25 0
-26 -27 0
-26 -28 0
-26 -29 0
-26 -30 0
-27 -28 0
-27 -29 0
-27 -30 0
-28 -29 0
-28 -30 0
-29 -30 0
26 27 28 29 30 0
-31 -32 0
-31 -33 0
-31 -34 0
-31 -35 0
-32 -33 0
-32 -34 0
-32 -35 0
-33 -34 0
-33 -35 0
-34 -35 0
31 32 33 34 35 0
-36 -37 0
-36 -38 0
-36 -39 0
-36 -40 0
-37 -38 0
-37 -39 0
-37 -40 0
-38 -39 0
-38 -40 0
-39 -40 0
36 37 38 39 40 0
-41 -42 0
-41 -43 0
-41 -44 0
-41 -45 0
-42 -43 0
-42 -44 0
-42 -45 0
-43 -44 0
-43 -45 0
-44 -45 0
41 42 43 44 45 0
-46 -47 0
-46 -48 0
-46 -49 0
-46 -50 0
-47 -48 0
-47 -49 0
-47 -50 0
-48 -49 0
-48 -50 0
-49 -50 0
46 47 48 49 50 0
-51 -52 0
-51 -53 0
-51 -54 0
-51 -55 0
-52 -53 0
-52 -54 0
-52 -55 0
-53 -54 0
-53 -55 0
-54 -55 0
51 52 53 54 55 0
-56 -57 0
-56 -58 0
-56 -59 0
-56 -60 0
-57 -58 0
-57 -59 0
-57 -60 0
-58 -59 0
-58 -60 0
-59 -60 0
56 57 58 59 60 0
-61 -62 0
-61 -63 0
-61 -64 0
-61 -65 0
-62 -63 0
-62 -64 0
-62 -65 0
-63 -64 0
-63 -65 0
-64 -65 0
61 62 63 64 65 0
-66 -67 0
-66 -68 0
-66 -69 0
-66 -70 0
-67 -68 0
-67 -69 0
-67 -70 0
-68 -69 0
-68 -70 0
-69 -70 0
66 67 68 69 70 0
-71 -72 0
-71 -73 0
-71 -74 0
-71 -75 0
-72 -73 0
-72 -74 0
-72 -75 0
-73 -74 0
-73 -75 0
-74 -75 0
71 72 73 74 75 0
-76 -77 0
-76 -78 0
-76 -79 0
-76 -80 0
-77 -78 0
-77 -79 0
-77 -80 0
-78 -79 0
-78 -80 0
-79 -80 0
76 77 78 79 80 0
-81 -82 0
-81 -83 0
-81 -84 0
-81 -85 0
-82 -83 0
-82 -84 0
-82 -85 0
-83 -84 0
-83 -85 0
-84 -85 0
81 82 83 84 85 0
-86 -87 0
-86 -88 0
-86 -89 0
-86 -90 0
-87 -88 0
-87 -89 0
-87 -90 0
-88 -89 0
-88 -90 0
-89 -90 0
86 87 88 89 90 0
-91 -92 0
-91 -93 0
-91 -94 0
-91 -95 0
-92 -93 0
-92 -94 0
-92 -95 0
-93 -94 0
-93 -95 0
-94 -95 0
91 92 93 94 95 0
-96 -97 0
-96 -98 0
-96 -99 0
-96 -100 0
-97 -98 0
-97 -99 0
-97 -100 0
-98 -99 0
-98 -100 0
-99 -100 0
96 97 98 99 100 0
-101 -102 0
-101 -103 0
-101 -104 0
-101 -105 0
-102 -103 0
-102 -104 0
-102 -105 0
-103 -104 0
-103 -105 0
-104 -105 0
101 102 103 104 105 0
-106 -107 0
-106 -108 0
-106 -109 0
-106 -110 0
-107 -108 0
-107 -109 0
-107 -110 0
-108 -109 0
-108 -110 0
-109 -110 0
106 107 108 109 110 0
-111 -112 0
-111 -113 0
-111 -114 0
-111 -115 0
-112 -113 0
-112 -114 0
-112 -115 0
-113 -114 0
-113 -115 0
-114 -115 0
111 112 113 114 115 0
-116 -117 0
-116 -118 0
-116 -119 0
-116 -120 0
-117 -118 0
-117 -119 0
-117 -120 0
-118 -119 0
-118 -120 0
-119 -120 0
116 117 118 119 120 0
-121 -122 0
-121 -123 0
-121 -124 0
-121 -125 0
-122 -123 0
-122 -124 0
-122 -125 0
-123 -124 0
-123 -125 0
-124 -125 0
121 122 123 124 125 0
-126 -127 0
-126 -128 0
-126 -129 0
-126 -130 0
-127 -128 0
-127 -129 0
-127 -130 0
-128 -129 0
-128 -130 0
-129 -130 0
126 127 128 129 130 0
-131 -132 0
-131 -133 0
-131 -134 0
-131 -135 0
-132 -133 0
-132 -134 0
-132 -135 0
-133 -134 0
-133 -135 0
-134 -135 0
131 132 133 134 135 0
-136 -137 0
-136 -138 0
-136 -139 0
-136 -140 0
-137 -138 0
-137 -139 0
-137 -140 0
-138 -139 0
-138 -140 0
-139 -140 0
136 137 138 139 140 0
-141 -142 0
-141 -143 0
-141 -144 0
-141 -145 0
-142 -143 0
-142 -144 0
-142 -145 0
-143 -144 0
-143 -145 0
-144 -145 0
141 142 143 144 145 0
-146 -147 0
-146 -148 0
-146 -149 0
-146 -150 0
-147 -148 0
-147 -149 0
-147 -150 0
-148 -149 0
-148 -150 0
-149 -150 0
146 147 148 149 150 0
-151 -152 0
-151 -153 0
-151 -154 0
-151 -155 0
-152 -153 0
-152 -154 0
-152 -155 0
-153 -154 0
-153 -155 0
-154 -155 0
151 152 153 154 155 0
-156 -157 0
-156 -158 0
-156 -159 0
-156 -160 0
-157 -158 0
-157 -159 0
-157 -160 0
-158 -159 0
-158 -160 0
-159 -160 0
156 157 158 159 160 0
-161 -162 0
-161 -163 0
-161 -164 0
-161 -165 0
-162 -163 0
-162 -164 0
-162 -165 0
-163 -164 0
-163 -165 0
-164 -165 0
161 162 163 164 165 0
-166 -167 0
-166 -168 0
-166 -169 0
-166 -170 0
-167 -168 0
-167 -169 0
-167 -170 0
-168 -169 0
-168 -170 0
-169 -170 0
166 167 168 169 170 0
-171 -172 0
-171 -173 0
-171 -174 0
-171 -175 0
-172 -173 0
-172 -174 0
-172 -175 0
-173 -174 0
-173 -175 0
-174 -175 0
171 172 173 174 175 0
-176 -177 0
-176 -178 0
-176 -179 0
-176 -180 0
-177 -178 0
-177 -179 0
-177 -180 0
-178 -179 0
-178 -180 0
-179 -180 0
176 177 178 179 180 0
-181 -182 0
-181 -183 0
-181 -184 0
-181 -185 0
-182 -183 0
-182 -184 0
-182 -185 0
-183 -184 0
-183 -185 0
-184 -185 0
181 182 183 184 185 0
-186 -187 0
-186 -188 0
-186 -189 0
-186 -190 0
-187 -188 0
-187 -189 0
-187 -190 0
-188 -189 0
-188 -190 0
-189 -190 0
186 187 188 189 190 0
-191 -192 0
-191 -193 0
-191 -194 0
-191 -195 0
-192 -193 0
-192 -194 0
-192 -195 0
-193 -194 0
-193 -195 0
-194 -195 0
191 192 193 194 195 0
-196 -197 0
-196 -198 0
-196 -199 0
-196 -200 0
-197 -198 0
-197 -199 0
-197 -200 0
-198 -199 0
-198 -200 0
-199 -200 0
196 197 198 199 200 0
-201 -202 0
-201 -203 0
-201 -204 0
-201 -205 0
-202 -203 0
-202 -204 0
-202 -205 0
-203 -204 0
-203 -205 0
-204 -205 0
201 202 203 204 205 0
-206 -207 0
-206 -208 0
-206 -209 0
-206 -210 0
-207 -208 0
-207 -209 0
-207 -210 0
-208 -209 0
-208 -210 0
-209 -210 0
206 207 208 209 210 0
-211 -212 0
-211 -213 0
-211 -214 0
-211 -215 0
-212 -213 0
-212 -214 0
-212 -215 0
-213 -214 0
-213 -215 0
-214 -215 0
211 212 213 214 215 0
-216 -217 0
-216 -218 0
-216 -219 0
-216 -220 0
-217 -218 0
-217 -219 0
-217 -220 0
-218 -219 0
-218 -220 0
-219 -220 0
216 217 218 219 220 0
-221 -222 0
-221 -223 0
-221 -224 0
-221 -225 0
-222 -223 0
-222 -224 0
-222 -225 0
-223 -224 0
-223 -225 0
-224 -225 0
221 222 223 224 225 0
-226 -227 0
-226 -228 0
-226 -229 0
-226 -230 0
-227 -228 0
-227 -229 0
-227 -230 0
-228 -229 0
-228 -230 0
-229 -230 0
226 227 228 229 230 0
-231 -232 0
-231 -233 0
-231 -234 0
-231 -235 0
-232 -233 0
-232 -234 0
-232 -235 0
-233 -234 0
-233 -235 0
-234 -235 0
231 232 233 234 235 0
-236 -237 0
-236 -238 0
-236 -239 0
-236 -240 0
-237 -238 0
-237 -239 0
-237 -240 0
-238 -239 0
-238 -240 0
-239 -240 0
236 237 238 239 240 0
-241 -242 0
-241 -243 0
-241 -244 0
-241 -245 0
-242 -243 0
-242 -244 0
-242 -245 0
-243 -244 0
-243 -245 0
-244 -245 0
241 242 243 244 245 0
-246 -247 0
-246 -248 0
-246 -249 0
-246 -250 0
-247 -248 0
-247 -249 0
-247 -250 0
-248 -249 0
-248 -250 0
-249 -250 0
246 247 248 249 250 0
-251 -252 0
-251 -253 0
-251 -254 0
-251 -255 0
-252 -253 0
-252 -254 0
-252 -255 0
-253 -254 0
-253 -255 0
-254 -255 0
251 252 253 254 255 0
-256 -257 0
-256 -258 0
-256 -259 0
-256 -260 0
-257 -258 0
-257 -259 0
-257 -260 0
-258 -259 0
-258 -260 0
-259 -260 0
256 257 258 259 260 0
-261 -262 0
-261 -263 0
-261 -264 0
-261 -265 0
-262 -263 0
-262 -264 0
-262 -265 0
-263 -264 0
-263 -265 0
-264 -265 0
261 262 263 264 265 0
-266 -267 0
-266 -268 0
-266 -269 0
-266 -270 0
-267 -268 0
-267 -269 0
-267 -270 0
-268 -269 0
-268 -270 0
-269 -270 0
266 267 268 269 270 0
-271 -272 0
-271 -273 0
-271 -274 0
-271 -275 0
-272 -273 0
-272 -274 0
-272 -275 0
-273 -274 0
-273 -275 0
-274 -275 0
271 272 273 274 275 0
-276 -277 0
-276 -278 0
-276 -279 0
-276 -280 0
-277 -278 0
-277 -279 0
-277 -280 0
-278 -279 0
-278 -280 0
-279 -280 0
276 277 278 279 280 0
-281 -282 0
-281 -283 0
-281 -284 0
-281 -285 0
-282 -283 0
-282 -284 0
-282 -285 0
-283 -284 0
-283 -285 0
-284 -285 0
281 282 283 284 285 0
-286 -287 0
-286 -288 0
-286 -289 0
-286 -290 0
-287 -288 0
-287 -289 0
-287 -290 0
-288 -289 0
-288 -290 0
-289 -290 0
286 287 288 289 290 0
-291 -292 0
-291 -293 0
-291 -294 0
-291 -295 0
-292 -293 0
-292 -294 0
-292 -295 0
-293 -294 0
-293 -295 0
-294 -295 0
291 292 293 294 295 0
-296 -297 0
-296 -298 0
-296 -299 0
-296 -300 0
-297 -298 0
-297 -299 0
-297 -300 0
-298 -299 0
-298 -300 0
-299 -300 0
296 297 298 299 300 0
-301 -302 0
-301 -303 0
-301 -304 0
-301 -305 0
-302 -303 0
-302 -304 0
-302 -305 0
-303 -304 0
-303 -305 0
-304 -305 0
301 302 303 304 305 0
-306 -307 0
-306 -308 0
-306 -309 0
-306 -310 0
-307 -308 0
-307 -309 0
-307 -310 0
-308 -309 0
-308 -310 0
-309 -310 0
306 307 308 309 310 0
-311 -312 0
-311 -313 0
-311 -314 0
-311 -315 0
-312 -313 0
-312 -314 0
-312 -315 0
-313 -314 0
-313 -315 0
-314 -315 0
311 312 313 314 315 0
-316 -317 0
-316 -318 0
-316 -319 0
-316 -320 0
-317 -318 0
-317 -319 0
-317 -320 0
-318 -319 0
-318 -320 0
-319 -320 0
316 317 318 319 320 0
-321 -322 0
-321 -323 0
-321 -324 0
-321 -325 0
-322 -323 0
-322 -324 0
-322 -325 0
-323 -324 0
-323 -325 0
-324 -325 0
321 322 323 324 325 0
-326 -327 0
-326 -328 0
-326 -329 0
-326 -330 0
-327 -328 0
-327 -329 0
-327 -330 0
-328 -329 0
-328 -330 0
-329 -330 0
326 327 328 329 330 0
-331 -332 0
-331 -333 0
-331 -334 0
-331 -335 0
-332 -333 0
-332 -334 0
-332 -335 0
-333 -334 0
-333 -335 0
-334 -335 0
331 332 333 334 335 0
-336 -337 0
-336 -338 0
-336 -339 0
-336 -340 0
-337 -338 0
-337 -339 0
-337 -340 0
-338 -339 0
-338 -340 0
-339 -340 0
336 337 338 339 340 0
-341 -342 0
-341 -343 0
-341 -344 0
-341 -345 0
-342 -343 0
-342 -344 0
-342 -345 0
-343 -344 0
-343 -345 0
-344 -345 0
341 342 343 344 345 0
-346 -347 0
-346 -348 0
-346 -349 0
-346 -350 0
-347 -348 0
-347 -349 0
-347 -350 0
-348 -349 0
-348 -350 0
-349 -350 0
346 347 348 349 350 0
-351 -352 0
-351 -353 0
-351 -354 0
-351 -355 0
-352 -353 0
-352 -354 0
-352 -355 0
-353 -354 0
-353 -355 0
-354 -355 0
351 352 353 354 355 0
-356 -357 0
-356 -358 0
-356 -359 0
-356 -360 0
-357 -358 0
-357 -359 0
-357 -360 0
-358 -359 0
-358 -360 0
-359 -360 0
356 357 358 359 360 0
-361 -362 0
-361 -363 0
-361 -364 0
-361 -365 0
-362 -363 0
-362 -364 0
-362 -365 0
-363 -364 0
-363 -365 0
-364 -365 0
361 362 363 364 365 0
-366 -367 0
-366 -368 0
-366 -369 0
-366 -370 0
-367 -368 0
-367 -369 0
-367 -370 0
-368 -369 0
-368 -370 0
-369 -370 0
366 367 368 369 370 0
-371 -372 0
-371 -373 0
-371 -374 0
-371 -375 0
-372 -373 0
-372 -374 0
-372 -375 0
-373 -374 0
-373 -375 0
-374 -375 0
371 372 373 374 375 0
-376 -377 0
-376 -378 0
-376 -379 0
-376 -380 0
-377 -378 0
-377 -379 0
-377 -380 0
-378 -379 0
-378 -380 0
-379 -380 0
376 377 378 379 380 0
-381 -382 0
-381 -383 0
-381 -384 0
-381 -385 0
-382 -383 0
-382 -384 0
-382 -385 0
-383 -384 0
-383 -385 0
-384 -385 0
381 382 383 384 385 0
-386 -387 0
-386 -388 0
-386 -389 0
-386 -390 0
-387 -388 0
-387 -389 0
-387 -390 0
-388 -389 0
-388 -390 0
-389 -390 0
386 387 388 389 390 0
-391 -392 0
-391 -393 0
-391 -394 0
-391 -395 0
-392 -393 0
-392 -394 0
-392 -395 0
-393 -394 0
-393 -395 0
-394 -395 0
391 392 393 394 395 0
-396 -397 0
-396 -398 0
-396 -399 0
-396 -400 0
-397 -398 0
-397 -399 0
-397 -400 0
-398 -399 0
-398 -400 0
-399 -400 0
396 397 398 399 400 0
-401 -402 0
-401 -403 0
-401 -404 0
-401 -405 0
-402 -403 0
-402 -404 0
-402 -405 0
-403 -404 0
-403 -405 0
-404 -405 0
401 402 403 404 405 0
-406 -407 0
-406 -408 0
-406 -409 0
-406 -410 0
-407 -408 0
-407 -409 0
-407 -410 0
-408 -409 0
-408 -410 0
-409 -410 0
406 407 408 409 410 0
-411 -412 0
-411 -413 0
-411 -414 0
-411 -415 0
-412 -413 0
-412 -414 0
-412 -415 0
-413 -414 0
-413 -415 0
-414 -415 0
411 412 413 414 415 0
-416 -417 0
-416 -418 0
-416 -419 0
-416 -420 0
-417 -418 0
-417 -419 0
-417 -420 0
-418 -419 0
-418 -420 0
-419 -420 0
416 417 418 419 420 0
-421 -422 0
-421 -423 0
-421 -424 0
-421 -425 0
-422 -423 0
-422 -424 0
-422 -425 0
-423 -424 0
-423 -425 0
-424 -425 0
421 422 423 424 425 0
-426 -427 0
-426 -428 0
-426 -429 0
-426 -430 0
-427 -428 0
-427 -429 0
-427 -430 0
-428 -429 0
-428 -430 0
-429 -430 0
426 427 428 429 430 0
-431 -432 0
-431 -433 0
-431 -434 0
-431 -435 0
-432 -433 0
-432 -434 0
-432 -435 0
-433 -434 0
-433 -435 0
-434 -435 0
431 432 433 434 435 0
-436 -437 0
-436 -438 0
-436 -439 0
-436 -440 0
-437 -438 0
-437 -439 0
-437 -440 0
-438 -439 0
-438 -440 0
-439 -440 0
436 437 438 439 440 0
-441 -442 0
-441 -443 0
-441 -444 0
-441 -445 0
-442 -443 0
-442 -444 0
-442 -445 0
-443 -444 0
-443 -445 0
-444 -445 0
441 442 443 444 445 0
-446 -447 0
-446 -448 0
-446 -449 0
-446 -450 0
-447 -448 0
-447 -449 0
-447 -450 0
-448 -449 0
-448 -450 0
-449 -450 0
446 447 448 449 450 0
-451 -452 0
-451 -453 0
-451 -454 0
-451 -455 0
-452 -453 0
-452 -454 0
-452 -455 0
-453 -454 0
-453 -455 0
-454 -455 0
451 452 453 454 455 0
-456 -457 0
-456 -458 0
-456 -459 0
-456 -460 0
-457 -458 0
-457 -459 0
-457 -460 0
-458 -459 0
-458 -460 0
-459 -460 0
456 457 458 459 460 0
-461 -462 0
-461 -463 0
-461 -464 0
-461 -465 0
-462 -463 0
-462 -464 0
-462 -465 0
-463 -464 0
-463 -465 0
-464 -465 0
461 462 463 464 465 0
-466 -467 0
-466 -468 0
-466 -469 0
-466 -470 0
-467 -468 0
-467 -469 0
-467 -470 0
-468 -469 0
-468 -470 0
-469 -470 0
466 467 468 469 470 0
-471 -472 0
-471 -473 0
-471 -474 0
-471 -475 0
-472 -473 0
-472 -474 0
-472 -475 0
-473 -474 0
-473 -475 0
-474 -475 0
471 472 473 474 475 0
-476 -477 0
-476 -478 0
-476 -479 0
-476 -480 0
-477 -478 0
-477 -479 0
-477 -480 0
-478 -479 0
-478 -480 0
-479 -480 0
476 477 478 479 480 0
-481 -482 0
-481 -483 0
-481 -484 0
-481 -485 0
-482 -483 0
-482 -484 0
-482 -485 0
-483 -484 0
-483 -485 0
-484 -485 0
481 482 483 484 485 0
-486 -487 0
-486 -488 0
-486 -489 0
-486 -490 0
-487 -488 0
-487 -489 0
-487 -490 0
-488 -489 0
-488 -490 0
-489 -490 0
486 487 488 489 490 0
-491 -492 0
-491 -493 0
-491 -494 0
-491 -495 0
-492 -493 0
-492 -494 0
-492 -495 0
-493 -494 0
-493 -495 0
-494 -495 0
491 492 493 494 495 0
-496 -497 0
-496 -498 0
-496 -499 0
-496 -500 0
-497 -498 0
-497 -499 0
-497 -500 0
-498 -499 0
-498 -500 0
-499 -500 0
496 497 498 499 500 0
-6 -21 0
-7 -22 0
-8 -23 0
-9 -24 0
-10 -25 0
-26 -46 0
-27 -47 0
-28 -48 0
-29 -49 0
-30 -50 0
-46 -66 0
-47 -67 0
-48 -68 0
-49 -69 0
-50 -70 0
-51 -61 0
-52 -62 0
-53 -63 0
-54 -64 0
-55 -65 0
-56 -66 0
-57 -67 0
-58 -68 0
-59 -69 0
-60 -70 0
-56 -76 0
-57 -77 0
-58 -78 0
-59 -79 0
-60 -80 0
-66 -76 0
-67 -77 0
-68 -78 0
-69 -79 0
-70 -80 0
-86 -91 0
-87 -92 0
-88 -93 0
-89 -94 0
-90 -95 0
-101 -116 0
-102 -117 0
-103 -118 0
-104 -119 0
-105 -120 0
-116 -121 0
-117 -122 0
-118 -123 0
-119 -124 0
-120 -125 0
-116 -131 0
-117 -132 0
-118 -133 0
-119 -134 0
-120 -135 0
-141 -151 0
-142 -152 0
-143 -153 0
-144 -154 0
-145 -155 0
-186 -196 0
-187 -197 0
-188 -198 0
-189 -199 0
-190 -200 0
-196 -206 0
-197 -207 0
-198 -208 0
-199 -209 0
-200 -210 0
-196 -211 0
-197 -212 0
-198 -213 0
-199 -214 0
-200 -215 0
-201 -216 0
-202 -217 0
-203 -218 0
-204 -219 0
-205 -220 0
-201 -221 0
-202 -222 0
-203 -223 0
-204 -224 0
-205 -225 0
-226 -236 0
-227 -237 0
-228 -238 0
-229 -239 0
-230 -240 0
-271 -281 0
-272 -282 0
-273 -283 0
-274 -284 0
-275 -285 0
-276 -291 0
-277 -292 0
-278 -293 0
-279 -294 0
-280 -295 0
-311 -321 0
-312 -322 0
-313 -323 0
-314 -324 0
-315 -325 0
-311 -326 0
-312 -327 0
-313 -328 0
-314 -329 0
-315 -330 0
-341 -356 0
-342 -357 0
-343 -358 0
-344 -359 0
-345 -360 0
-356 -366 0
-357 -367 0
-358 -368 0
-359 -369 0
-360 -370 0
-371 -391 0
-372 -392 0
-373 -393 0
-374 -394 0
-375 -395 0
-391 -406 0
-392 -407 0
-393 -408 0
-394 -409 0
-395 -410 0
-411 -416 0
-412 -417 0
-413 -418 0
-414 -419 0
-415 -420 0
-411 -421 0
-412 -422 0
-413 -423 0
-414 -424 0
-415 -425 0
-421 -426 0
-422 -427 0
-423 -428 0
-424 -429 0
-425 -430 0
-421 -436 0
-422 -437 0
-423 -438 0
-424 -439 0
-425 -440 0
-436 -441 0
-437 -442 0
-438 -443 0
-439 -444 0
-440 -445 0
-436 -446 0
-437 -447 0
-438 -448 0
-439 -449 0
-440 -450 0
-456 -461 0
-457 -462 0
-458 -463 0
-459 -464 0
-460 -465 0
-1 -486 0
-2 -487 0
-3 -488 0
-4 -489 0
-5 -490 0
-1 -81 0
-2 -82 0
-3 -83 0
-4 -84 0
-5 -85 0
-1 -181 0
-2 -182 0
-3 -183 0
-4 -184 0
-5 -185 0
-1 -276 0
-2 -277 0
-3 -278 0
-4 -279 0
-5 -280 0
-1 -291 0
-2 -292 0
-3 -293 0
-4 -294 0
-5 -295 0
-1 -301 0
-2 -302 0
-3 -303 0
-4 -304 0
-5 -305 0
-1 -326 0
-2 -327 0
-3 -328 0
-4 -329 0
-5 -330 0
-6 -66 0
-7 -67 0
-8 -68 0
-9 -69 0
-10 -70 0
-6 -76 0
-7 -77 0
-8 -78 0
-9 -79 0
-10 -80 0
-6 -141 0
-7 -142 0
-8 -143 0
-9 -144 0
-10 -145 0
-6 -281 0
-7 -282 0
-8 -283 0
-9 -284 0
-10 -285 0
-6 -286 0
-7 -287 0
-8 -288 0
-9 -289 0
-10 -290 0
-6 -341 0
-7 -342 0
-8 -343 0
-9 -344 0
-10 -345 0
-6 -376 0
-7 -377 0
-8 -378 0
-9 -379 0
-10 -380 0
-6 -451 0
-7 -452 0
-8 -453 0
-9 -454 0
-10 -455 0
-6 -461 0
-7 -462 0
-8 -463 0
-9 -464 0
-10 -465 0
-11 -46 0
-12 -47 0
-13 -48 0
-14 -49 0
-15 -50 0
-11 -126 0
-12 -127 0
-13 -128 0
-14 -129 0
-15 -130 0
-11 -196 0
-12 -197 0
-13 -198 0
-14 -199 0
-15 -200 0
-11 -266 0
-12 -267 0
-13 -268 0
-14 -269 0
-15 -270 0
-11 -366 0
-12 -367 0
-13 -368 0
-14 -369 0
-15 -370 0
-11 -401 0
-12 -402 0
-13 -403 0
-14 -404 0
-15 -405 0
-16 -41 0
-17 -42 0
-18 -43 0
-19 -44 0
-20 -45 0
-16 -251 0
-17 -252 0
-18 -253 0
-19 -254 0
-20 -255 0
-21 -46 0
-22 -47 0
-23 -48 0
-24 -49 0
-25 -50 0
-21 -106 0
-22 -107 0
-23 -108 0
-24 -109 0
-25 -110 0
-21 -146 0
-22 -147 0
-23 -148 0
-24 -149 0
-25 -150 0
-21 -176 0
-22 -177 0
-23 -178 0
-24 -179 0
-25 -180 0
-21 -196 0
-22 -197 0
-23 -198 0
-24 -199 0
-25 -200 0
-21 -311 0
-22 -312 0
-23 -313 0
-24 -314 0
-25 -315 0
-21 -406 0
-22 -407 0
-23 -408 0
-24 -409 0
-25 -410 0
-26 -51 0
-27 -52 0
-28 -53 0
-29 -54 0
-30 -55 0
-26 -96 0
-27 -97 0
-28 -98 0
-29 -99 0
-30 -100 0
-26 -276 0
-27 -277 0
-28 -278 0
-29 -279 0
-30 -280 0
-26 -331 0
-27 -332 0
-28 -333 0
-29 -334 0
-30 -335 0
-26 -456 0
-27 -457 0
-28 -458 0
-29 -459 0
-30 -460 0
-31 -71 0
-32 -72 0
-33 -73 0
-34 -74 0
-35 -75 0
-31 -86 0
-32 -87 0
-33 -88 0
-34 -89 0
-35 -90 0
-31 -111 0
-32 -112 0
-33 -113 0
-34 -114 0
-35 -115 0
-31 -116 0
-32 -117 0
-33 -118 0
-34 -119 0
-35 -120 0
-31 -136 0
-32 -137 0
-33 -138 0
-34 -139 0
-35 -140 0
-31 -261 0
-32 -262 0
-33 -263 0
-34 -264 0
-35 -265 0
-31 -306 0
-32 -307 0
-33 -308 0
-34 -309 0
-35 -310 0
-31 -346 0
-32 -347 0
-33 -348 0
-34 -349 0
-35 -350 0
-31 -391 0
-32 -392 0
-33 -393 0
-34 -394 0
-35 -395 0
-31 -446 0
-32 -447 0
-33 -448 0
-34 -449 0
-35 -450 0
-36 -261 0
-37 -262 0
-38 -263 0
-39 -264 0
-40 -265 0
-36 -301 0
-37 -302 0
-38 -303 0
-39 -304 0
-40 -305 0
-36 -316 0
-37 -317 0
-38 -318 0
-39 -319 0
-40 -320 0
-41 -81 0
-42 -82 0
-43 -83 0
-44 -84 0
-45 -85 0
-41 -236 0
-42 -237 0
-43 -238 0
-44 -239 0
-45 -240 0
-41 -266 0
-42 -267 0
-43 -268 0
-44 -269 0
-45 -270 0
-41 -316 0
-42 -317 0
-43 -318 0
-44 -319 0
-45 -320 0
-41 -361 0
-42 -362 0
-43 -363 0
-44 -364 0
-45 -365 0
-41 -401 0
-42 -402 0
-43 -403 0
-44 -404 0
-45 -405 0
-46 -146 0
-47 -147 0
-48 -148 0
-49 -149 0
-50 -150 0
-46 -161 0
-47 -162 0
-48 -163 0
-49 -164 0
-50 -165 0
-46 -326 0
-47 -327 0
-48 -328 0
-49 -329 0
-50 -330 0
-46 -356 0
-47 -357 0
-48 -358 0
-49 -359 0
-50 -360 0
-46 -371 0
-47 -372 0
-48 -373 0
-49 -374 0
-50 -375 0
-46 -421 0
-47 -422 0
-48 -423 0
-49 -424 0
-50 -425 0
-46 -476 0
-47 -477 0
-48 -478 0
-49 -479 0
-50 -480 0
-46 -481 0
-47 -482 0
-48 -483 0
-49 -484 0
-50 -485 0
-51 -116 0
-52 -117 0
-53 -118 0
-54 -119 0
-55 -120 0
-51 -131 0
-52 -132 0
-53 -133 0
-54 -134 0
-55 -135 0
-51 -206 0
-52 -207 0
-53 -208 0
-54 -209 0
-55 -210 0
-51 -221 0
-52 -222 0
-53 -223 0
-54 -224 0
-55 -225 0
-51 -296 0
-52 -297 0
-53 -298 0
-54 -299 0
-55 -300 0
-51 -306 0
-52 -307 0
-53 -308 0
-54 -309 0
-55 -310 0
-51 -376 0
-52 -377 0
-53 -378 0
-54 -379 0
-55 -380 0
-51 -401 0
-52 -402 0
-53 -403 0
-54 -404 0
-55 -405 0
-51 -446 0
-52 -447 0
-53 -448 0
-54 -449 0
-55 -450 0
-51 -461 0
-52 -462 0
-53 -463 0
-54 -464 0
-55 -465 0
-56 -91 0
-57 -92 0
-58 -93 0
-59 -94 0
-60 -95 0
-56 -101 0
-57 -102 0
-58 -103 0
-59 -104 0
-60 -105 0
-56 -196 0
-57 -197 0
-58 -198 0
-59 -199 0
-60 -200 0
-56 -206 0
-57 -207 0
-58 -208 0
-59 -209 0
-60 -210 0
-56 -281 0
-57 -282 0
-58 -283 0
-59 -284 0
-60 -285 0
-56 -396 0
-57 -397 0
-58 -398 0
-59 -399 0
-60 -400 0
-56 -421 0
-57 -422 0
-58 -423 0
-59 -424 0
-60 -425 0
-56 -426 0
-57 -427 0
-58 -428 0
-59 -429 0
-60 -430 0
-56 -436 0
-57 -437 0
-58 -438 0
-59 -439 0
-60 -440 0
-56 -441 0
-57 -442 0
-58 -443 0
-59 -444 0
-60 -445 0
-56 -451 0
-57 -452 0
-58 -453 0
-59 -454 0
-60 -455 0
-61 -211 0
-62 -212 0
-63 -213 0
-64 -214 0
-65 -215 0
-61 -271 0
-62 -272 0
-63 -273 0
-64 -274 0
-65 -275 0
-61 -391 0
-62 -392 0
-63 -393 0
-64 -394 0
-65 -395 0
-61 -401 0
-62 -402 0
-63 -403 0
-64 -404 0
-65 -405 0
-61 -481 0
-62 -482 0
-63 -483 0
-64 -484 0
-65 -485 0
-61 -496 0
-62 -497 0
-63 -498 0
-64 -499 0
-65 -500 0
-66 -131 0
-67 -132 0
-68 -133 0
-69 -134 0
-70 -135 0
-66 -146 0
-67 -147 0
-68 -148 0
-69 -149 0
-70 -150 0
-66 -156 0
-67 -157 0
-68 -158 0
-69 -159 0
-70 -160 0
-66 -186 0
-67 -187 0
-68 -188 0
-69 -189 0
-70 -190 0
-66 -216 0
-67 -217 0
-68 -218 0
-69 -219 0
-70 -220 0
-66 -291 0
-67 -292 0
-68 -293 0
-69 -294 0
-70 -295 0
-66 -321 0
-67 -322 0
-68 -323 0
-69 -324 0
-70 -325 0
-66 -451 0
-67 -452 0
-68 -453 0
-69 -454 0
-70 -455 0
-71 -186 0
-72 -187 0
-73 -188 0
-74 -189 0
-75 -190 0
-71 -256 0
-72 -257 0
-73 -258 0
-74 -259 0
-75 -260 0
-71 -291 0
-72 -292 0
-73 -293 0
-74 -294 0
-75 -295 0
-71 -346 0
-72 -347 0
-73 -348 0
-74 -349 0
-75 -350 0
-71 -406 0
-72 -407 0
-73 -408 0
-74 -409 0
-75 -410 0
-71 -421 0
-72 -422 0
-73 -423 0
-74 -424 0
-75 -425 0
-76 -206 0
-77 -207 0
-78 -208 0
-79 -209 0
-80 -210 0
-76 -211 0
-77 -212 0
-78 -213 0
-79 -214 0
-80 -215 0
-76 -251 0
-77 -252 0
-78 -253 0
-79 -254 0
-80 -255 0
-81 -116 0
-82 -117 0
-83 -118 0
-84 -119 0
-85 -120 0
-81 -146 0
-82 -147 0
-83 -148 0
-84 -149 0
-85 -150 0
-81 -176 0
-82 -177 0
-83 -178 0
-84 -179 0
-85 -180 0
-81 -201 0
-82 -202 0
-83 -203 0
-84 -204 0
-85 -205 0
-81 -216 0
-82 -217 0
-83 -218 0
-84 -219 0
-85 -220 0
-81 -326 0
-82 -327 0
-83 -328 0
-84 -329 0
-85 -330 0
-81 -366 0
-82 -367 0
-83 -368 0
-84 -369 0
-85 -370 0
-81 -401 0
-82 -402 0
-83 -403 0
-84 -404 0
-85 -405 0
-81 -406 0
-82 -407 0
-83 -408 0
-84 -409 0
-85 -410 0
-81 -456 0
-82 -457 0
-83 -458 0
-84 -459 0
-85 -460 0
-86 -126 0
-87 -127 0
-88 -128 0
-89 -129 0
-90 -130 0
-86 -211 0
-87 -212 0
-88 -213 0
-89 -214 0
-90 -215 0
-86 -286 0
-87 -287 0
-88 -288 0
-89 -289 0
-90 -290 0
-86 -416 0
-87 -417 0
-88 -418 0
-89 -419 0
-90 -420 0
-86 -436 0
-87 -437 0
-88 -438 0
-89 -439 0
-90 -440 0
-86 -471 0
-87 -472 0
-88 -473 0
-89 -474 0
-90 -475 0
-91 -211 0
-92 -212 0
-93 -213 0
-94 -214 0
-95 -215 0
-91 -226 0
-92 -227 0
-93 -228 0
-94 -229 0
-95 -230 0
-91 -281 0
-92 -282 0
-93 -283 0
-94 -284 0
-95 -285 0
-91 -376 0
-92 -377 0
-93 -378 0
-94 -379 0
-95 -380 0
-91 -406 0
-92 -407 0
-93 -408 0
-94 -409 0
-95 -410 0
-91 -461 0
-92 -462 0
-93 -463 0
-94 -464 0
-95 -465 0
-91 -481 0
-92 -482 0
-93 -483 0
-94 -484 0
-95 -485 0
-96 -126 0
-97 -127 0
-98 -128 0
-99 -129 0
-100 -130 0
-96 -151 0
-97 -152 0
-98 -153 0
-99 -154 0
-100 -155 0
-96 -191 0
-97 -192 0
-98 -193 0
-99 -194 0
-100 -195 0
-96 -306 0
-97 -307 0
-98 -308 0
-99 -309 0
-100 -310 0
-96 -311 0
-97 -312 0
-98 -313 0
-99 -314 0
-100 -315 0
-96 -361 0
-97 -362 0
-98 -363 0
-99 -364 0
-100 -365 0
-96 -371 0
-97 -372 0
-98 -373 0
-99 -374 0
-100 -375 0
-96 -431 0
-97 -432 0
-98 -433 0
-99 -434 0
-100 -435 0
-96 -456 0
-97 -457 0
-98 -458 0
-99 -459 0
-100 -460 0
-96 -471 0
-97 -472 0
-98 -473 0
-99 -474 0
-100 -475 0
-101 -176 0
-102 -177 0
-103 -178 0
-104 -179 0
-105 -180 0
-101 -206 0
-102 -207 0
-103 -208 0
-104 -209 0
-105 -210 0
-101 -216 0
-102 -217 0
-103 -218 0
-104 -219 0
-105 -220 0
-101 -451 0
-102 -452 0
-103 -453 0
-104 -454 0
-105 -455 0
-106 -161 0
-107 -162 0
-108 -163 0
-109 -164 0
-110 -165 0
-106 -226 0
-107 -227 0
-108 -228 0
-109 -229 0
-110 -230 0
-106 -256 0
-107 -257 0
-108 -258 0
-109 -259 0
-110 -260 0
-106 -286 0
-107 -287 0
-108 -288 0
-109 -289 0
-110 -290 0
-106 -346 0
-107 -347 0
-108 -348 0
-109 -349 0
-110 -350 0
-106 -476 0
-107 -477 0
-108 -478 0
-109 -479 0
-110 -480 0
-106 -481 0
-107 -482 0
-108 -483 0
-109 -484 0
-110 -485 0
-111 -226 0
-112 -227 0
-113 -228 0
-114 -229 0
-115 -230 0
-111 -261 0
-112 -262 0
-113 -263 0
-114 -264 0
-115 -265 0
-111 -336 0
-112 -337 0
-113 -338 0
-114 -339 0
-115 -340 0
-111 -386 0
-112 -387 0
-113 -388 0
-114 -389 0
-115 -390 0
-116 -151 0
-117 -152 0
-118 -153 0
-119 -154 0
-120 -155 0
-116 -216 0
-117 -217 0
-118 -218 0
-119 -219 0
-120 -220 0
-116 -346 0
-117 -347 0
-118 -348 0
-119 -349 0
-120 -350 0
-116 -371 0
-117 -372 0
-118 -373 0
-119 -374 0
-120 -375 0
-116 -391 0
-117 -392 0
-118 -393 0
-119 -394 0
-120 -395 0
-116 -491 0
-117 -492 0
-118 -493 0
-119 -494 0
-120 -495 0
-121 -276 0
-122 -277 0
-123 -278 0
-124 -279 0
-125 -280 0
-121 -291 0
-122 -292 0
-123 -293 0
-124 -294 0
-125 -295 0
-121 -331 0
-122 -332 0
-123 -333 0
-124 -334 0
-125 -335 0
-121 -361 0
-122 -362 0
-123 -363 0
-124 -364 0
-125 -365 0
-121 -376 0
-122 -377 0
-123 -378 0
-124 -379 0
-125 -380 0
-121 -426 0
-122 -427 0
-123 -428 0
-124 -429 0
-125 -430 0
-121 -466 0
-122 -467 0
-123 -468 0
-124 -469 0
-125 -470 0
-126 -186 0
-127 -187 0
-128 -188 0
-129 -189 0
-130 -190 0
-126 -286 0
-127 -287 0
-128 -288 0
-129 -289 0
-130 -290 0
-126 -321 0
-127 -322 0
-128 -323 0
-129 -324 0
-130 -325 0
-126 -401 0
-127 -402 0
-128 -403 0
-129 -404 0
-130 -405 0
-126 -421 0
-127 -422 0
-128 -423 0
-129 -424 0
-130 -425 0
-126 -431 0
-127 -432 0
-128 -433 0
-129 -434 0
-130 -435 0
-126 -466 0
-127 -467 0
-128 -468 0
-129 -469 0
-130 -470 0
-126 -486 0
-127 -487 0
-128 -488 0
-129 -489 0
-130 -490 0
-131 -186 0
-132 -187 0
-133 -188 0
-134 -189 0
-135 -190 0
-131 -226 0
-132 -227 0
-133 -228 0
-134 -229 0
-135 -230 0
-131 -271 0
-132 -272 0
-133 -273 0
-134 -274 0
-135 -275 0
-131 -371 0
-132 -372 0
-133 -373 0
-134 -374 0
-135 -375 0
-131 -436 0
-132 -437 0
-133 -438 0
-134 -439 0
-135 -440 0
-136 -246 0
-137 -247 0
-138 -248 0
-139 -249 0
-140 -250 0
-136 -361 0
-137 -362 0
-138 -363 0
-139 -364 0
-140 -365 0
-136 -406 0
-137 -407 0
-138 -408 0
-139 -409 0
-140 -410 0
-141 -226 0
-142 -227 0
-143 -228 0
-144 -229 0
-145 -230 0
-141 -296 0
-142 -297 0
-143 -298 0
-144 -299 0
-145 -300 0
-141 -316 0
-142 -317 0
-143 -318 0
-144 -319 0
-145 -320 0
-141 -341 0
-142 -342 0
-143 -343 0
-144 -344 0
-145 -345 0
-141 -351 0
-142 -352 0
-143 -353 0
-144 -354 0
-145 -355 0
-141 -441 0
-142 -442 0
-143 -443 0
-144 -444 0
-145 -445 0
-141 -446 0
-142 -447 0
-143 -448 0
-144 -449 0
-145 -450 0
-141 -486 0
-142 -487 0
-143 -488 0
-144 -489 0
-145 -490 0
-146 -211 0
-147 -212 0
-148 -213 0
-149 -214 0
-150 -215 0
-146 -321 0
-147 -322 0
-148 -323 0
-149 -324 0
-150 -325 0
-146 -406 0
-147 -407 0
-148 -408 0
-149 -409 0
-150 -410 0
-146 -421 0
-147 -422 0
-148 -423 0
-149 -424 0
-150 -425 0
-146 -476 0
-147 -477 0
-148 -478 0
-149 -479 0
-150 -480 0
-151 -206 0
-152 -207 0
-153 -208 0
-154 -209 0
-155 -210 0
-151 -311 0
-152 -312 0
-153 -313 0
-154 -314 0
-155 -315 0
-151 -331 0
-152 -332 0
-153 -333 0
-154 -334 0
-155 -335 0
-151 -341 0
-152 -342 0
-153 -343 0
-154 -344 0
-155 -345 0
-151 -361 0
-152 -362 0
-153 -363 0
-154 -364 0
-155 -365 0
-151 -436 0
-152 -437 0
-153 -438 0
-154 -439 0
-155 -440 0
-151 -486 0
-152 -487 0
-153 -488 0
-154 -489 0
-155 -490 0
-156 -226 0
-157 -227 0
-158 -228 0
-159 -229 0
-160 -230 0
-156 -271 0
-157 -272 0
-158 -273 0
-159 -274 0
-160 -275 0
-156 -301 0
-157 -302 0
-158 -303 0
-159 -304 0
-160 -305 0
-156 -316 0
-157 -317 0
-158 -318 0
-159 -319 0
-160 -320 0
-156 -381 0
-157 -382 0
-158 -383 0
-159 -384 0
-160 -385 0
-161 -206 0
-162 -207 0
-163 -208 0
-164 -209 0
-165 -210 0
-161 -291 0
-162 -292 0
-163 -293 0
-164 -294 0
-165 -295 0
-161 -386 0
-162 -387 0
-163 -388 0
-164 -389 0
-165 -390 0
-166 -386 0
-167 -387 0
-168 -388 0
-169 -389 0
-170 -390 0
-166 -486 0
-167 -487 0
-168 -488 0
-169 -489 0
-170 -490 0
-166 -491 0
-167 -492 0
-168 -493 0
-169 -494 0
-170 -495 0
-171 -316 0
-172 -317 0
-173 -318 0
-174 -319 0
-175 -320 0
-171 -381 0
-172 -382 0
-173 -383 0
-174 -384 0
-175 -385 0
-171 -496 0
-172 -497 0
-173 -498 0
-174 -499 0
-175 -500 0
-176 -246 0
-177 -247 0
-178 -248 0
-179 -249 0
-180 -250 0
-176 -416 0
-177 -417 0
-178 -418 0
-179 -419 0
-180 -420 0
-176 -481 0
-177 -482 0
-178 -483 0
-179 -484 0
-180 -485 0
-181 -231 0
-182 -232 0
-183 -233 0
-184 -234 0
-185 -235 0
-181 -261 0
-182 -262 0
-183 -263 0
-184 -264 0
-185 -265 0
-181 -266 0
-182 -267 0
-183 -268 0
-184 -269 0
-185 -270 0
-181 -306 0
-182 -307 0
-183 -308 0
-184 -309 0
-185 -310 0
-181 -356 0
-182 -357 0
-183 -358 0
-184 -359 0
-185 -360 0
-181 -376 0
-182 -377 0
-183 -378 0
-184 -379 0
-185 -380 0
-181 -396 0
-182 -397 0
-183 -398 0
-184 -399 0
-185 -400 0
-181 -471 0
-182 -472 0
-183 -473 0
-184 -474 0
-185 -475 0
-181 -486 0
-182 -487 0
-183 -488 0
-184 -489 0
-185 -490 0
-186 -381 0
-187 -382 0
-188 -383 0
-189 -384 0
-190 -385 0
-186 -451 0
-187 -452 0
-188 -453 0
-189 -454 0
-190 -455 0
-186 -466 0
-187 -467 0
-188 -468 0
-189 -469 0
-190 -470 0
-186 -486 0
-187 -487 0
-188 -488 0
-189 -489 0
-190 -490 0
-191 -421 0
-192 -422 0
-193 -423 0
-194 -424 0
-195 -425 0
-191 -426 0
-192 -427 0
-193 -428 0
-194 -429 0
-195 -430 0
-191 -466 0
-192 -467 0
-193 -468 0
-194 -469 0
-195 -470 0
-196 -256 0
-197 -257 0
-198 -258 0
-199 -259 0
-200 -260 0
-196 -316 0
-197 -317 0
-198 -318 0
-199 -319 0
-200 -320 0
-196 -366 0
-197 -367 0
-198 -368 0
-199 -369 0
-200 -370 0
-196 -386 0
-197 -387 0
-198 -388 0
-199 -389 0
-200 -390 0
-196 -446 0
-197 -447 0
-198 -448 0
-199 -449 0
-200 -450 0
-196 -481 0
-197 -482 0
-198 -483 0
-199 -484 0
-200 -485 0
-201 -306 0
-202 -307 0
-203 -308 0
-204 -309 0
-205 -310 0
-201 -446 0
-202 -447 0
-203 -448 0
-204 -449 0
-205 -450 0
-201 -486 0
-202 -487 0
-203 -488 0
-204 -489 0
-205 -490 0
-206 -261 0
-207 -262 0
-208 -263 0
-209 -264 0
-210 -265 0
-206 -281 0
-207 -282 0
-208 -283 0
-209 -284 0
-210 -285 0
-206 -366 0
-207 -367 0
-208 -368 0
-209 -369 0
-210 -370 0
-206 -386 0
-207 -387 0
-208 -388 0
-209 -389 0
-210 -390 0
-206 -391 0
-207 -392 0
-208 -393 0
-209 -394 0
-210 -395 0
-206 -411 0
-207 -412 0
-208 -413 0
-209 -414 0
-210 -415 0
-206 -416 0
-207 -417 0
-208 -418 0
-209 -419 0
-210 -420 0
-206 -446 0
-207 -447 0
-208 -448 0
-209 -449 0
-210 -450 0
-211 -281 0
-212 -282 0
-213 -283 0
-214 -284 0
-215 -285 0
-211 -326 0
-212 -327 0
-213 -328 0
-214 -329 0
-215 -330 0
-211 -331 0
-212 -332 0
-213 -333 0
-214 -334 0
-215 -335 0
-211 -341 0
-212 -342 0
-213 -343 0
-214 -344 0
-215 -345 0
-211 -381 0
-212 -382 0
-213 -383 0
-214 -384 0
-215 -385 0
-211 -476 0
-212 -477 0
-213 -478 0
-214 -479 0
-215 -480 0
-211 -481 0
-212 -482 0
-213 -483 0
-214 -484 0
-215 -485 0
-216 -241 0
-217 -242 0
-218 -243 0
-219 -244 0
-220 -245 0
-216 -316 0
-217 -317 0
-218 -318 0
-219 -319 0
-220 -320 0
-216 -441 0
-217 -442 0
-218 -443 0
-219 -444 0
-220 -445 0
-221 -246 0
-222 -247 0
-223 -248 0
-224 -249 0
-225 -250 0
-221 -271 0
-222 -272 0
-223 -273 0
-224 -274 0
-225 -275 0
-221 -406 0
-222 -407 0
-223 -408 0
-224 -409 0
-225 -410 0
-221 -431 0
-222 -432 0
-223 -433 0
-224 -434 0
-225 -435 0
-226 -356 0
-227 -357 0
-228 -358 0
-229 -359 0
-230 -360 0
-226 -421 0
-227 -422 0
-228 -423 0
-229 -424 0
-230 -425 0
-231 -281 0
-232 -282 0
-233 -283 0
-234 -284 0
-235 -285 0
-231 -346 0
-232 -347 0
-233 -348 0
-234 -349 0
-235 -350 0
-231 -396 0
-232 -397 0
-233 -398 0
-234 -399 0
-235 -400 0
-231 -406 0
-232 -407 0
-233 -408 0
-234 -409 0
-235 -410 0
-231 -496 0
-232 -497 0
-233 -498 0
-234 -499 0
-235 -500 0
-236 -271 0
-237 -272 0
-238 -273 0
-239 -274 0
-240 -275 0
-236 -276 0
-237 -277 0
-238 -278 0
-239 -279 0
-240 -280 0
-236 -341 0
-237 -342 0
-238 -343 0
-239 -344 0
-240 -345 0
-236 -371 0
-237 -372 0
-238 -373 0
-239 -374 0
-240 -375 0
-236 -396 0
-237 -397 0
-238 -398 0
-239 -399 0
-240 -400 0
-236 -411 0
-237 -412 0
-238 -413 0
-239 -414 0
-240 -415 0
-236 -421 0
-237 -422 0
-238 -423 0
-239 -424 0
-240 -425 0
-236 -446 0
-237 -447 0
-238 -448 0
-239 -449 0
-240 -450 0
-241 -276 0
-242 -277 0
-243 -278 0
-244 -279 0
-245 -280 0
-241 -306 0
-242 -307 0
-243 -308 0
-244 -309 0
-245 -310 0
-241 -376 0
-242 -377 0
-243 -378 0
-244 -379 0
-245 -380 0
-241 -446 0
-242 -447 0
-243 -448 0
-244 -449 0
-245 -450 0
-251 -311 0
-252 -312 0
-253 -313 0
-254 -314 0
-255 -315 0
-251 -336 0
-252 -337 0
-253 -338 0
-254 -339 0
-255 -340 0
-251 -426 0
-252 -427 0
-253 -428 0
-254 -429 0
-255 -430 0
-251 -491 0
-252 -492 0
-253 -493 0
-254 -494 0
-255 -495 0
-256 -296 0
-257 -297 0
-258 -298 0
-259 -299 0
-260 -300 0
-256 -316 0
-257 -317 0
-258 -318 0
-259 -319 0
-260 -320 0
-256 -341 0
-257 -342 0
-258 -343 0
-259 -344 0
-260 -345 0
-256 -446 0
-257 -447 0
-258 -448 0
-259 -449 0
-260 -450 0
-261 -331 0
-262 -332 0
-263 -333 0
-264 -334 0
-265 -335 0
-261 -346 0
-262 -347 0
-263 -348 0
-264 -349 0
-265 -350 0
-261 -351 0
-262 -352 0
-263 -353 0
-264 -354 0
-265 -355 0
-261 -381 0
-262 -382 0
-263 -383 0
-264 -384 0
-265 -385 0
-266 -326 0
-267 -327 0
-268 -328 0
-269 -329 0
-270 -330 0
-266 -401 0
-267 -402 0
-268 -403 0
-269 -404 0
-270 -405 0
-266 -471 0
-267 -472 0
-268 -473 0
-269 -474 0
-270 -475 0
-271 -331 0
-272 -332 0
-273 -333 0
-274 -334 0
-275 -335 0
-271 -336 0
-272 -337 0
-273 -338 0
-274 -339 0
-275 -340 0
-271 -411 0
-272 -412 0
-273 -413 0
-274 -414 0
-275 -415 0
-271 -441 0
-272 -442 0
-273 -443 0
-274 -444 0
-275 -445 0
-271 -481 0
-272 -482 0
-273 -483 0
-274 -484 0
-275 -485 0
-276 -496 0
-277 -497 0
-278 -498 0
-279 -499 0
-280 -500 0
-281 -411 0
-282 -412 0
-283 -413 0
-284 -414 0
-285 -415 0
-286 -311 0
-287 -312 0
-288 -313 0
-289 -314 0
-290 -315 0
-286 -361 0
-287 -362 0
-288 -363 0
-289 -364 0
-290 -365 0
-286 -436 0
-287 -437 0
-288 -438 0
-289 -439 0
-290 -440 0
-286 -496 0
-287 -497 0
-288 -498 0
-289 -499 0
-290 -500 0
-291 -321 0
-292 -322 0
-293 -323 0
-294 -324 0
-295 -325 0
-291 -361 0
-292 -362 0
-293 -363 0
-294 -364 0
-295 -365 0
-291 -406 0
-292 -407 0
-293 -408 0
-294 -409 0
-295 -410 0
-291 -411 0
-292 -412 0
-293 -413 0
-294 -414 0
-295 -415 0
-291 -436 0
-292 -437 0
-293 -438 0
-294 -439 0
-295 -440 0
-291 -481 0
-292 -482 0
-293 -483 0
-294 -484 0
-295 -485 0
-296 -386 0
-297 -387 0
-298 -388 0
-299 -389 0
-300 -390 0
-296 -406 0
-297 -407 0
-298 -408 0
-299 -409 0
-300 -410 0
-301 -456 0
-302 -457 0
-303 -458 0
-304 -459 0
-305 -460 0
-301 -481 0
-302 -482 0
-303 -483 0
-304 -484 0
-305 -485 0
-306 -356 0
-307 -357 0
-308 -358 0
-309 -359 0
-310 -360 0
-306 -381 0
-307 -382 0
-308 -383 0
-309 -384 0
-310 -385 0
-306 -491 0
-307 -492 0
-308 -493 0
-309 -494 0
-310 -495 0
-311 -361 0
-312 -362 0
-313 -363 0
-314 -364 0
-315 -365 0
-316 -481 0
-317 -482 0
-318 -483 0
-319 -484 0
-320 -485 0
-321 -416 0
-322 -417 0
-323 -418 0
-324 -419 0
-325 -420 0
-326 -356 0
-327 -357 0
-328 -358 0
-329 -359 0
-330 -360 0
-331 -361 0
-332 -362 0
-333 -363 0
-334 -364 0
-335 -365 0
-336 -436 0
-337 -437 0
-338 -438 0
-339 -439 0
-340 -440 0
-336 -446 0
-337 -447 0
-338 -448 0
-339 -449 0
-340 -450 0
-336 -451 0
-337 -452 0
-338 -453 0
-339 -454 0
-340 -455 0
-336 -476 0
-337 -477 0
-338 -478 0
-339 -479 0
-340 -480 0
-336 -481 0
-337 -482 0
-338 -483 0
-339 -484 0
-340 -485 0
-346 -446 0
-347 -447 0
-348 -448 0
-349 -449 0
-350 -450 0
-346 -476 0
-347 -477 0
-348 -478 0
-349 -479 0
-350 -480 0
-346 -491 0
-347 -492 0
-348 -493 0
-349 -494 0
-350 -495 0
-351 -466 0
-352 -467 0
-353 -468 0
-354 -469 0
-355 -470 0
-356 -426 0
-357 -427 0
-358 -428 0
-359 -429 0
-360 -430 0
-356 -431 0
-357 -432 0
-358 -433 0
-359 -434 0
-360 -435 0
-361 -421 0
-362 -422 0
-363 -423 0
-364 -424 0
-365 -425 0
-366 -406 0
-367 -407 0
-368 -408 0
-369 -409 0
-370 -410 0
-366 -416 0
-367 -417 0
-368 -418 0
-369 -419 0
-370 -420 0
-366 -421 0
-367 -422 0
-368 -423 0
-369 -424 0
-370 -425 0
-371 -416 0
-372 -417 0
-373 -418 0
-374 -419 0
-375 -420 0
-371 -426 0
-372 -427 0
-373 -428 0
-374 -429 0
-375 -430 0
-371 -431 0
-372 -432 0
-373 -433 0
-374 -434 0
-375 -435 0
-371 -471 0
-372 -472 0
-373 -473 0
-374 -474 0
-375 -475 0
-376 -471 0
-377 -472 0
-378 -473 0
-379 -474 0
-380 -475 0
-381 -411 0
-382 -412 0
-383 -413 0
-384 -414 0
-385 -415 0
-381 -421 0
-382 -422 0
-383 -423 0
-384 -424 0
-385 -425 0
-386 -436 0
-387 -437 0
-388 -438 0
-389 -439 0
-390 -440 0
-386 -456 0
-387 -457 0
-388 -458 0
-389 -459 0
-390 -460 0
-386 -471 0
-387 -472 0
-388 -473 0
-389 -474 0
-390 -475 0
-401 -466 0
-402 -467 0
-403 -468 0
-404 -469 0
-405 -470 0
-406 -466 0
-407 -467 0
-408 -468 0
-409 -469 0
-410 -470 0
-411 -456 0
-412 -457 0
-413 -458 0
-414 -459 0
-415 -460 0
-411 -466 0
-412 -467 0
-413 -468 0
-414 -469 0
-415 -470 0
-416 -446 0
-417 -447 0
-418 -448 0
-419 -449 0
-420 -450 0
-416 -456 0
-417 -457 0
-418 -458 0
-419 -459 0
-420 -460 0
-421 -451 0
-422 -452 0
-423 -453 0
-424 -454 0
-425 -455 0
-421 -486 0
-422 -487 0
-423 -488 0
-424 -489 0
-425 -490 0
-436 -466 0
-437 -467 0
-438 -468 0
-439 -469 0
-440 -470 0
-441 -496 0
-442 -497 0
-443 -498 0
-444 -499 0
-445 -500 0
-451 -491 0
-452 -492 0
-453 -493 0
-454 -494 0
-455 -495 0
